245 5
10 10 10 10 10 

0 0 0 0 0 0 1 2 
0 0 0 0 0 0 4 3 6 9 12 
5 0 0 0 1 0 2 8 4 
6 0 0 0 3 0 2 11 5 
10 0 0 0 5 0 1 7 
1 0 0 0 5 0 1 7 
8 0 0 0 3 0 1 10 
3 0 0 0 6 0 1 11 
7 0 0 0 5 0 1 11 
4 0 0 0 9 0 1 13 
6 0 0 0 6 0 1 13 
5 0 0 0 7 0 1 13 
0 0 0 0 0 0 4 14 26 38 50 
0 0 0 0 0 0 3 15 16 18 
2 0 1 0 0 0 2 20 17 
2 0 7 0 0 0 3 24 23 19 
7 0 6 0 0 0 2 23 19 
1 0 4 0 0 0 1 20 
4 0 6 0 0 0 1 21 
8 0 6 0 0 0 1 21 
7 0 7 0 0 0 1 22 
5 0 3 0 0 0 1 25 
8 0 3 0 0 0 2 25 131 
3 0 7 0 0 0 1 25 
0 0 0 0 0 0 1 62 
0 0 0 0 0 0 6 27 29 30 33 35 36 
9 0 0 0 1 0 1 28 
1 0 0 0 4 0 1 31 
10 0 0 0 2 0 1 31 
10 0 0 0 6 0 1 31 
6 0 0 0 5 0 2 32 134 
9 0 0 0 4 0 1 34 
3 0 0 0 7 0 1 34 
9 0 0 0 3 0 1 37 
5 0 0 0 9 0 1 37 
1 0 0 0 9 0 1 37 
0 0 0 0 0 0 1 62 
0 0 0 0 0 0 4 39 40 41 43 
8 1 0 0 0 0 1 42 
5 3 0 0 0 0 1 42 
1 3 0 0 0 0 1 42 
4 8 0 0 0 0 1 44 
10 7 0 0 0 0 1 44 
2 4 0 0 0 0 2 48 45 
6 6 0 0 0 0 2 47 46 
1 6 0 0 0 0 1 49 
3 4 0 0 0 0 2 49 146 
3 8 0 0 0 0 1 49 
0 0 0 0 0 0 1 62 
0 0 0 0 0 0 3 51 55 56 
9 0 1 0 0 0 2 59 52 
2 0 4 0 0 0 2 60 53 
8 0 6 0 0 0 2 57 54 
10 0 6 0 0 0 1 58 
6 0 7 0 0 0 1 59 
5 0 3 0 0 0 1 57 
3 0 4 0 0 0 1 61 
1 0 6 0 0 0 2 61 212 
9 0 6 0 0 0 1 61 
7 0 7 0 0 0 1 61 
0 0 0 0 0 0 1 62 
0 0 0 0 0 0 5 63 75 87 99 111 
0 0 0 0 0 0 2 64 207 
8 0 0 0 0 1 2 68 65 
9 0 0 0 0 3 2 67 66 
6 0 0 0 0 6 3 73 72 69 
4 0 0 0 0 4 3 72 70 69 
6 0 0 0 0 4 2 72 69 
10 0 0 0 0 10 1 71 
5 0 0 0 0 8 1 71 
2 0 0 0 0 6 1 74 
10 0 0 0 0 3 1 74 
7 0 0 0 0 5 1 74 
0 0 0 0 0 0 1 123 
0 0 0 0 0 0 3 76 80 85 
10 2 0 0 0 0 2 84 77 
8 4 0 0 0 0 3 83 82 78 
6 10 0 0 0 0 2 79 216 
8 5 0 0 0 0 1 81 
7 6 0 0 0 0 1 81 
6 4 0 0 0 0 1 86 
3 3 0 0 0 0 1 86 
2 6 0 0 0 0 1 86 
5 4 0 0 0 0 1 86 
8 6 0 0 0 0 1 86 
0 0 0 0 0 0 1 123 
0 0 0 0 0 0 5 88 91 93 96 97 
2 2 0 0 0 0 1 89 
6 2 0 0 0 0 1 90 
4 3 0 0 0 0 1 92 
8 6 0 0 0 0 1 92 
1 3 0 0 0 0 1 94 
10 10 0 0 0 0 2 95 118 
5 7 0 0 0 0 1 98 
9 7 0 0 0 0 1 98 
1 5 0 0 0 0 1 98 
2 5 0 0 0 0 1 98 
0 0 0 0 0 0 1 123 
0 0 0 0 0 0 6 100 102 106 107 108 109 
9 0 1 0 0 0 1 101 
5 0 7 0 0 0 1 103 
5 0 5 0 0 0 1 103 
3 0 7 0 0 0 1 104 
10 0 5 0 0 0 1 105 
2 0 6 0 0 0 1 110 
10 0 7 0 0 0 1 110 
1 0 5 0 0 0 2 110 156 
9 0 4 0 0 0 1 110 
2 0 3 0 0 0 1 110 
0 0 0 0 0 0 1 123 
0 0 0 0 0 0 2 112 113 
1 1 0 0 0 0 2 115 114 
9 6 0 0 0 0 2 115 114 
7 5 0 0 0 0 3 117 116 222 
2 4 0 0 0 0 2 117 116 
3 7 0 0 0 0 2 121 118 
4 4 0 0 0 0 2 121 118 
4 6 0 0 0 0 2 120 119 
2 3 0 0 0 0 1 122 
2 5 0 0 0 0 1 122 
8 9 0 0 0 0 1 122 
0 0 0 0 0 0 1 123 
0 0 0 0 0 0 5 124 136 148 160 172 
0 0 0 0 0 0 1 125 
10 1 0 0 0 0 2 127 126 
10 6 0 0 0 0 2 129 128 
10 2 0 0 0 0 3 129 128 215 
7 3 0 0 0 0 4 133 132 131 130 
4 7 0 0 0 0 4 133 132 131 130 
6 4 0 0 0 0 1 134 
1 8 0 0 0 0 1 134 
5 6 0 0 0 0 1 134 
10 4 0 0 0 0 1 134 
2 9 0 0 0 0 1 135 
0 0 0 0 0 0 1 184 
0 0 0 0 0 0 3 137 138 165 
9 0 1 0 0 0 3 141 140 139 
8 0 2 0 0 0 2 141 139 
3 0 5 0 0 0 2 143 142 
10 0 6 0 0 0 2 143 142 
5 0 4 0 0 0 2 144 143 
6 0 9 0 0 0 2 146 144 
5 0 4 0 0 0 2 146 145 
4 0 5 0 0 0 1 145 
2 0 7 0 0 0 1 147 
4 0 7 0 0 0 1 147 
0 0 0 0 0 0 1 184 
0 0 0 0 0 0 3 149 152 236 
6 0 1 0 0 0 3 158 151 150 
6 0 4 0 0 0 2 155 153 
8 0 5 0 0 0 2 157 154 
5 0 7 0 0 0 1 153 
3 0 6 0 0 0 1 154 
4 0 7 0 0 0 1 156 
6 0 7 0 0 0 1 157 
3 0 2 0 0 0 1 159 
2 0 6 0 0 0 1 159 
6 0 5 0 0 0 1 159 
0 0 0 0 0 0 1 184 
0 0 0 0 0 0 4 161 164 166 170 
8 0 0 0 1 0 2 169 162 
3 0 0 0 3 0 1 163 
8 0 0 0 5 0 2 168 165 
5 0 0 0 4 0 2 169 167 
3 0 0 0 10 0 1 167 
7 0 0 0 8 0 1 167 
4 0 0 0 5 0 1 171 
7 0 0 0 3 0 2 171 198 
2 0 0 0 5 0 1 171 
10 0 0 0 6 0 1 171 
0 0 0 0 0 0 1 184 
0 0 0 0 0 0 1 173 
5 0 0 1 0 0 3 178 175 174 
10 0 0 7 0 0 2 177 176 
10 0 0 6 0 0 1 176 
1 0 0 3 0 0 3 182 180 179 
4 0 0 3 0 0 2 182 180 
6 0 0 7 0 0 2 182 179 
10 0 0 5 0 0 1 181 
9 0 0 6 0 0 2 181 215 
3 0 0 9 0 0 1 183 
7 0 0 3 0 0 1 183 
0 0 0 0 0 0 1 184 
0 0 0 0 0 0 5 185 197 209 221 233 
0 0 0 0 0 0 4 186 187 188 190 
8 0 0 0 0 1 3 192 189 218 
5 0 0 0 0 5 2 192 189 
5 0 0 0 0 3 1 189 
7 0 0 0 0 6 2 193 191 
8 0 0 0 0 5 2 194 192 
3 0 0 0 0 7 1 194 
8 0 0 0 0 7 1 193 
8 0 0 0 0 5 1 195 
8 0 0 0 0 4 1 195 
5 0 0 0 0 7 1 196 
0 0 0 0 0 0 1 245 
0 0 0 0 0 0 2 198 199 
9 0 0 0 0 1 2 207 200 
10 0 0 0 0 4 5 207 206 205 204 202 
5 0 0 0 0 4 2 206 201 
1 0 0 0 0 3 3 205 204 202 
1 0 0 0 0 4 1 203 
5 0 0 0 0 5 1 208 
7 0 0 0 0 4 1 208 
7 0 0 0 0 9 2 208 222 
8 0 0 0 0 6 1 208 
3 0 0 0 0 10 1 208 
0 0 0 0 0 0 1 245 
0 0 0 0 0 0 3 210 215 219 
3 0 0 1 0 0 2 214 211 
2 0 0 7 0 0 2 218 212 
1 0 0 9 0 0 1 213 
8 0 0 6 0 0 1 216 
5 0 0 3 0 0 1 217 
3 0 0 5 0 0 1 216 
10 0 0 8 0 0 1 220 
9 0 0 4 0 0 2 220 223 
8 0 0 3 0 0 1 220 
5 0 0 4 0 0 1 220 
0 0 0 0 0 0 1 245 
0 0 0 0 0 0 2 222 224 
6 0 0 0 0 1 3 231 225 223 
1 0 0 0 0 4 2 227 226 
3 0 0 0 0 2 1 225 
7 0 0 0 0 5 2 230 227 
1 0 0 0 0 8 2 230 229 
3 0 0 0 0 6 2 228 242 
9 0 0 0 0 7 1 229 
3 0 0 0 0 6 1 232 
1 0 0 0 0 4 1 232 
6 0 0 0 0 7 1 232 
0 0 0 0 0 0 1 245 
0 0 0 0 0 0 1 234 
3 0 1 0 0 0 2 236 235 
8 0 8 0 0 0 2 238 237 
10 0 4 0 0 0 2 240 238 
8 0 3 0 0 0 2 240 239 
2 0 6 0 0 0 1 239 
6 0 5 0 0 0 3 243 242 241 
7 0 6 0 0 0 3 243 242 241 
3 0 3 0 0 0 1 244 
6 0 7 0 0 0 1 244 
2 0 7 0 0 0 1 244 
0 0 0 0 0 0 1 245 
0 0 0 0 0 0 0 
